
List of user-set options:

                                    Name   Value                used
                           linear_solver = ma57                  yes
                  ma57_automatic_scaling = yes                   yes
                                max_iter = 2000                  yes
                             mu_strategy = adaptive              yes
                             output_file = DynamicOptimization_lMtildestateIPOPTinfo.txt  yes
                             print_level = 5                     yes
                      print_user_options = yes                   yes
                                     tol = 1e-005                yes
This is Ipopt version 3.11.0, running with linear solver ma57.

Number of nonzeros in equality constraint Jacobian...:    35911
Number of nonzeros in inequality constraint Jacobian.:       36
Number of nonzeros in Lagrangian Hessian.............:    15750

Reallocating memory for MA57: lfact (449679)
Total number of variables............................:     8209
                     variables with only lower bounds:        0
                variables with lower and upper bounds:     8209
                     variables with only upper bounds:        0
Total number of equality constraints.................:     6301
Total number of inequality constraints...............:       19
        inequality constraints with only lower bounds:        0
   inequality constraints with lower and upper bounds:       19
        inequality constraints with only upper bounds:        0

iter    objective    inf_pr   inf_du lg(mu)  ||d||  lg(rg) alpha_du alpha_pr  ls
   0 9.9999900e-003 1.65e+003 2.69e-002   0.0 0.00e+000    -  0.00e+000 0.00e+000   0
   1 3.4370677e-002 1.56e+003 5.46e+000  -5.9 1.51e+000    -  2.35e-002 5.92e-002h  1
   2 1.3721207e+000 1.52e+003 1.28e+002  -0.3 5.00e+001    -  1.94e-002 2.67e-002f  1
   3 1.4229532e+000 1.50e+003 1.27e+002   0.0 6.54e+000   2.0 1.48e-002 7.78e-003h  1
   4 1.4451370e+000 1.50e+003 1.26e+002   0.0 1.17e+001   1.5 6.57e-003 1.89e-003f  1
   5 1.5432716e+000 1.49e+003 1.97e+002   0.8 2.15e+001   1.9 4.23e-003 4.56e-003f  1
   6 1.5659746e+000 1.49e+003 3.09e+002   0.4 8.66e+000   2.4 7.92e-003 3.61e-003h  1
   7 1.6943575e+000 1.47e+003 5.46e+003   0.3 1.12e+001   1.9 4.13e-003 1.40e-002f  1
   8 1.8483876e+000 1.43e+003 5.65e+003   1.4 7.05e+000   3.2 6.76e-003 2.18e-002f  1
   9 1.8573223e+000 1.43e+003 5.63e+003  -0.6 2.91e+000   3.7 4.77e-002 3.07e-003h  1
iter    objective    inf_pr   inf_du lg(mu)  ||d||  lg(rg) alpha_du alpha_pr  ls
  10 1.9893844e+000 1.39e+003 6.36e+003   0.6 5.12e+000   3.2 4.17e-002 2.58e-002h  1
  11 2.0843491e+000 1.37e+003 6.99e+003   0.4 4.73e+000   3.6 9.72e-002 2.01e-002h  1
  12 2.1676477e+000 1.34e+003 7.93e+003  -0.2 5.41e+000   4.0 4.06e-002 1.54e-002h  1
  13 2.2636135e+000 1.32e+003 7.28e+004   1.0 5.80e+000   4.5 3.02e-001 1.66e-002h  1
  14 2.3458755e+000 1.31e+003 8.04e+004  -5.4 6.88e+000   4.9 2.40e-002 1.20e-002h  1
  15 2.1767620e+000 3.48e+005 6.60e+009   2.6 1.87e+001   4.4 4.34e-003 1.94e-002f  1
  16 2.3000779e+000 3.37e+005 6.40e+009   0.7 5.51e+000   3.9 1.80e-003 3.02e-002f  1
  17 2.2289224e+000 3.29e+005 6.25e+009   0.7 5.46e+000   4.4 6.12e-003 2.37e-002f  1
  18 2.2945531e+000 3.17e+005 6.01e+009   0.7 1.67e+000   4.8 1.13e-001 3.93e-002h  1
  19 2.1807804e+000 3.15e+005 5.98e+009   0.7 3.18e+001   4.3 8.91e-003 5.77e-003f  1
iter    objective    inf_pr   inf_du lg(mu)  ||d||  lg(rg) alpha_du alpha_pr  ls
  20 2.2308057e+000 2.91e+005 5.53e+009   0.7 1.26e+000   4.7 2.50e-001 7.76e-002h  1
  21 2.2918914e+000 2.62e+005 4.97e+009   0.7 7.59e-001   5.2 3.20e-001 1.07e-001h  1
  22 2.1609641e+000 2.56e+005 4.86e+009   0.7 8.89e+000   4.7 2.46e-002 2.30e-002f  1
  23 2.1934489e+000 2.25e+005 4.27e+009   0.7 3.68e-001   5.1 1.87e-001 1.28e-001h  1
  24 2.1491819e+000 1.74e+005 3.30e+009   0.7 5.40e-001   4.6 1.42e-001 2.57e-001f  1
  25 2.1608614e+000 1.64e+005 3.11e+009   0.7 1.54e+000   4.1 9.30e-002 5.99e-002f  1
  26 2.2376047e+000 1.07e+005 2.04e+009   0.7 2.67e-001   4.6 2.05e-001 4.24e-001f  1
  27 2.3055110e+000 8.04e+004 1.53e+009   0.7 1.15e+000   4.1 1.88e-002 2.88e-001f  1
  28 2.3132596e+000 7.63e+004 1.45e+009   0.7 4.84e-001   4.5 3.41e-001 5.30e-002f  1
  29 2.3790028e+000 6.20e+004 1.18e+009   0.7 8.69e-001   4.0 1.07e-001 2.08e-001f  1
iter    objective    inf_pr   inf_du lg(mu)  ||d||  lg(rg) alpha_du alpha_pr  ls
  30 2.3807878e+000 6.14e+004 1.16e+009   0.7 2.33e-001   4.5 2.86e-001 1.00e-002h  1
  31 2.4252423e+000 3.87e+004 7.35e+008   0.7 3.60e-001   4.9 6.09e-001 4.60e-001f  1
  32 2.4696156e+000 1.77e+004 3.37e+008   0.7 1.09e-001   5.3 7.17e-001 7.80e-001f  1
  33 2.5280840e+000 9.29e+003 1.76e+008   0.7 7.42e-001   4.8 1.60e-001 6.46e-001f  1
  34 2.5288227e+000 9.09e+003 1.73e+008   0.6 1.85e-001   5.3 1.00e+000 2.13e-002h  1
  35 2.5368358e+000 8.17e+003 1.55e+008   0.5 4.07e-001   4.8 1.00e+000 1.07e-001f  1
  36 2.5973758e+000 2.99e+003 5.70e+007   1.0 1.87e-001   5.2 1.00e+000 1.00e+000f  1
  37 2.6027090e+000 2.94e+003 5.61e+007   1.8 4.95e+000   4.7 7.71e-001 1.69e-002f  1
  38 2.8362208e+000 1.39e+003 7.07e+007   2.1 8.88e-001   5.2 8.34e-001 7.42e-001f  1
  39 2.8386678e+000 1.35e+003 6.86e+007   2.0 4.82e-001   5.6 6.00e-001 3.07e-002f  1
iter    objective    inf_pr   inf_du lg(mu)  ||d||  lg(rg) alpha_du alpha_pr  ls
  40 3.1116298e+000 4.81e+002 3.29e+007   3.1 3.36e-001   6.0 9.00e-001 1.00e+000f  1
  41 3.1828801e+000 1.63e+002 7.15e+008   3.0 2.70e-001   6.4 1.00e+000 1.00e+000f  1
  42 3.1881572e+000 1.57e+002 6.91e+008   3.1 6.93e+000   6.0 3.30e-002 3.64e-002f  1
  43 3.1986412e+000 4.87e+001 4.26e+009   3.1 2.40e-001   7.3 9.30e-001 1.00e+000f  1
  44 3.2062503e+000 3.03e+001 2.13e+009   3.1 1.02e+000   6.8 3.17e-001 4.18e-001f  1
  45 3.2099176e+000 4.17e+000 7.61e+008   2.2 1.11e-001   8.2 1.00e+000 1.00e+000h  1
  46 3.2111620e+000 1.29e-001 9.61e+007   2.1 2.56e-002   7.7 1.00e+000 1.00e+000f  1
  47 3.2112325e+000 1.12e-004 2.11e+005   0.2 7.46e-004   7.2 1.00e+000 1.00e+000h  1
  48 3.2112332e+000 1.55e-010 6.70e+000  -1.7 1.28e-006   6.7 1.00e+000 1.00e+000h  1
  49 3.2112327e+000 1.50e-012 8.89e-001  -3.5 5.09e-007   6.2 1.00e+000 1.00e+000h  1
iter    objective    inf_pr   inf_du lg(mu)  ||d||  lg(rg) alpha_du alpha_pr  ls
  50 3.2112311e+000 1.67e-012 9.00e-001  -3.6 1.55e-006   5.8 1.00e+000 1.00e+000h  1
  51 3.2112265e+000 2.79e-012 9.00e-001  -3.6 4.64e-006   5.3 1.00e+000 1.00e+000h  1
  52 3.2112126e+000 1.98e-011 9.00e-001  -3.6 1.39e-005   4.8 1.00e+000 1.00e+000h  1
  53 3.2111688e+000 2.54e-010 9.42e-001  -5.5 4.37e-005   4.3 1.00e+000 1.00e+000f  1
  54 3.2110376e+000 2.30e-009 9.43e-001  -7.4 1.31e-004   3.9 1.00e+000 1.00e+000f  1
  55 3.2106440e+000 2.07e-008 9.43e-001  -9.3 3.94e-004   3.4 1.00e+000 1.00e+000f  1
  56 3.2094630e+000 1.86e-007 9.43e-001 -11.0 1.18e-003   2.9 1.00e+000 1.00e+000f  1
  57 3.2059204e+000 1.68e-006 9.43e-001 -11.0 3.54e-003   2.4 1.00e+000 1.00e+000f  1
  58 3.1952943e+000 1.51e-005 9.43e-001 -11.0 1.06e-002   1.9 1.00e+000 1.00e+000f  1
  59 3.1634322e+000 1.36e-004 9.42e-001 -11.0 3.19e-002   1.5 1.00e+000 1.00e+000f  1
iter    objective    inf_pr   inf_du lg(mu)  ||d||  lg(rg) alpha_du alpha_pr  ls
  60 3.0679947e+000 1.23e-003 9.41e-001 -11.0 9.54e-002   1.0 1.00e+000 1.00e+000f  1
  61 2.9394192e+000 3.00e-003 9.39e-001  -9.0 2.85e-001   0.5 1.00e+000 4.51e-001f  1
  62 2.9379817e+000 2.99e-003 9.39e-001  -7.0 8.45e-001   0.0 1.00e+000 1.70e-003h  1
  63 2.9025223e+000 3.09e-003 9.38e-001  -6.2 2.48e+000  -0.4 1.00e+000 1.43e-002f  1
  64 2.7340819e+000 5.30e-003 9.36e-001  -5.5 6.91e+000  -0.9 1.00e+000 2.44e-002f  1
  65 2.1101249e+000 5.03e-002 9.25e-001  -4.8 1.63e+001  -1.4 1.00e+000 3.82e-002f  1
  66 2.0979812e+000 5.04e-002 9.25e-001  -2.8 1.87e+002  -1.9 1.37e-002 6.13e-004f  1
  67 7.4558031e-001 4.06e-001 8.57e-001  -3.3 1.08e+001  -1.4 6.75e-001 1.25e-001f  1
  68 1.4356664e-001 6.78e-001 6.57e-001  -3.1 2.49e+000  -1.9 6.55e-001 2.41e-001f  1
  69 1.1343381e+000 6.48e+000 2.51e-001  -2.8 9.91e-001  -1.5 9.98e-001 1.00e+000h  1
iter    objective    inf_pr   inf_du lg(mu)  ||d||  lg(rg) alpha_du alpha_pr  ls
  70 1.1323822e+000 5.56e-001 9.35e-002  -2.9 1.98e-001  -1.1 9.33e-001 1.00e+000h  1
  71 1.2072905e+000 3.97e-001 2.70e-001  -2.9 2.82e+000    -  2.49e-001 3.31e-001h  1
  72 1.3127233e+000 1.30e-001 1.90e-001  -2.9 6.20e-001  -1.5 3.87e-001 7.71e-001h  1
  73 1.1501911e+000 5.37e-001 3.13e-002  -3.3 1.74e-001    -  1.00e+000 9.71e-001h  1
  74 8.6080447e-001 5.28e-001 1.01e-002  -3.8 2.89e-001    -  9.89e-001 1.00e+000h  1
  75 7.3869852e-001 3.60e-001 6.63e-003  -3.9 1.45e-001    -  1.00e+000 1.00e+000h  1
  76 6.3591752e-001 4.75e-001 4.90e-003  -4.3 1.61e-001    -  1.00e+000 1.00e+000h  1
  77 5.6495030e-001 1.73e+000 1.18e-002  -5.0 2.24e-001    -  1.00e+000 1.00e+000h  1
  78 5.6570442e-001 3.38e-002 1.52e-003  -5.1 3.56e-002  -2.0 1.00e+000 1.00e+000h  1
  79 5.5917195e-001 6.41e-001 4.92e-003  -5.1 3.25e-001    -  8.29e-001 1.00e+000h  1
iter    objective    inf_pr   inf_du lg(mu)  ||d||  lg(rg) alpha_du alpha_pr  ls
  80 6.2161360e-001 7.00e+000 7.14e-002  -4.4 4.49e-001    -  3.16e-001 1.00e+000h  1
  81 5.8944125e-001 8.98e-001 8.97e-003  -4.7 1.68e-001  -2.5 1.00e+000 9.02e-001h  1
  82 5.7267502e-001 2.36e+000 1.31e-002  -4.7 3.16e-001    -  1.00e+000 1.00e+000h  1
  83 5.7699755e-001 6.99e-002 8.04e-004  -4.7 7.77e-002  -3.0 1.00e+000 1.00e+000h  1
  84 5.5286574e-001 2.21e-001 4.95e-003  -5.5 1.29e-001  -3.5 1.00e+000 1.00e+000h  1
  85 5.4977067e-001 3.47e-001 5.33e-003  -5.7 2.80e-001    -  1.00e+000 1.00e+000h  1
  86 5.4760419e-001 2.43e-001 1.63e-003  -6.1 2.11e-001    -  1.00e+000 1.00e+000h  1
  87 5.4661502e-001 6.04e-003 2.46e-005  -6.7 9.85e-002    -  1.00e+000 1.00e+000h  1
  88 5.4638955e-001 1.19e-003 8.44e-006  -7.3 2.22e-002    -  1.00e+000 1.00e+000h  1
  89 5.4633458e-001 8.12e-004 4.83e-006  -7.7 1.27e-002    -  1.00e+000 1.00e+000h  1
iter    objective    inf_pr   inf_du lg(mu)  ||d||  lg(rg) alpha_du alpha_pr  ls
  90 5.4632132e-001 4.07e-004 3.60e-005  -8.0 7.21e-003    -  9.86e-001 1.00e+000h  1
  91 5.4630773e-001 6.35e-005 1.79e-006  -8.7 5.17e-003    -  1.00e+000 1.00e+000h  1
  92 5.4630555e-001 3.76e-006 2.33e-006  -9.3 2.92e-003    -  1.00e+000 1.00e+000h  1

Number of Iterations....: 92

                                   (scaled)                 (unscaled)
Objective...............:  5.4630555382058177e-001   5.4630555382058177e-001
Dual infeasibility......:  2.3346685268819547e-006   2.3346685268819547e-006
Constraint violation....:  2.5052403647881269e-006   3.7578605471821902e-006
Complementarity.........:  1.4702550547914087e-009   1.4702550547914087e-009
Overall NLP error.......:  2.5052403647881269e-006   3.7578605471821902e-006


Number of objective function evaluations             = 93
Number of objective gradient evaluations             = 93
Number of equality constraint evaluations            = 93
Number of inequality constraint evaluations          = 93
Number of equality constraint Jacobian evaluations   = 93
Number of inequality constraint Jacobian evaluations = 93
Number of Lagrangian Hessian evaluations             = 92
Total CPU secs in IPOPT (w/o function evaluations)   =      6.904
Total CPU secs in NLP function evaluations           =     11.573

EXIT: Optimal Solution Found.
